problems/GracefulWheelGraphs/GracefulWheelGraphs-models/noch/O2/minion/model-n11-solution000001.eprime-solution
language ESSENCE' 1.0

letting colouring_Function1D be [0, 1, 3, 6, 11, 2, 10, 4, 18, 5, 15, 22; int(0..11)]
letting edgeID_Function1D be [1, 2, 3, 5, 9, 8, 6, 14, 13, 10, 15, 22, 21, 19, 16, 11, 20, 12, 18, 4, 17, 7; int(0..21)]
