problems/GracefulWheelGraphs/GracefulWheelGraphs-models/noch/O2/minion/model-n11-solution000001.solution
language Essence 1.3

letting colouring be
        function(0 --> 0, 1 --> 1, 2 --> 3, 3 --> 6, 4 --> 11, 5 --> 2, 6 --> 10, 7 --> 4, 8 --> 18, 9 --> 5, 10 --> 15,
                 11 --> 22)
letting edgeID be
        function(0 --> 1, 1 --> 2, 2 --> 3, 3 --> 5, 4 --> 9, 5 --> 8, 6 --> 6, 7 --> 14, 8 --> 13, 9 --> 10, 10 --> 15,
                 11 --> 22, 12 --> 21, 13 --> 19, 14 --> 16, 15 --> 11, 16 --> 20, 17 --> 12, 18 --> 18, 19 --> 4,
                 20 --> 17, 21 --> 7)
